(set-logic NIA)

(set-option :produce-models true)
(set-option :incremental true)

; Deklarace promennych pro vstupy
; ===============================

; Parametry
(declare-fun A () Int)
(declare-fun B () Int)
(declare-fun C () Int)
(declare-fun D () Int)
(declare-fun E () Int)

;;;;;;;;;;;;;;;;;;;;;;;;;;;;;;;;;;;;;
;;;;;;;; START OF SOLUTION ;;;;;;;;;;
;;;;;;;;;;;;;;;;;;;;;;;;;;;;;;;;;;;;;

; Filip Novák
; xnovakf00

(define-fun x () Int 
              (* A B 2))

(define-fun y ( (fx Int) (pE Int) ) Int
              (ite (< fx pE) 
                  (+ fx (* 5 B)) 
                  (- fx C)))

(define-fun z ( (fx Int) (fy Int) (pD Int) ) Int
              (ite (< (+ fy 2) pD)
                  (- (* fx A) (* fy B))
                  (+ (* fx B) (* fy A))))

(define-fun firstCon ( (pD Int) (pE Int)) Bool
  (and
    (> pD 0)
    (> pE 0)))

(define-fun secCon ((fz Int) (pD Int) (pE Int)) Bool
  (< fz (+ pE pD)))

(assert
  (firstCon D E))

(assert
  (secCon (z x (y x E) D) D E)
)

(assert
  (forall ((ppD Int) (ppE Int))
    (=>
      (and (firstCon ppD ppE) (secCon (z x (y x ppE) ppD) ppD ppE)) (>= (+ ppD ppE) (+ D E))
    )
  )
)


;;;;;;;;;;;;;;;;;;;;;;;;;;;;;;;;;;;;;
;;;;;;;;; END OF SOLUTION ;;;;;;;;;;;
;;;;;;;;;;;;;;;;;;;;;;;;;;;;;;;;;;;;;

; Testovaci vstupy
; ================

(echo "Test 1 - vstup A=1, B=1, C=3")
(echo "a) Ocekavany vystup je sat a D+E se rovna 2")
(check-sat-assuming (
  (= A 1) (= B 1) (= C 3)
))
(get-value (D E (+ D E)))
(echo "b) Neexistuje jine reseni nez 2, ocekavany vystup je unsat")
(check-sat-assuming (
  (= A 1) (= B 1) (= C 3) (distinct (+ D E) 2)
))


(echo "Test 2 - vstup A=5, B=2, C=5")
(echo "a) Ocekavany vystup je sat a D+E se rovna 54")
(check-sat-assuming (
  (= A 5) (= B 2) (= C 5)
))
(get-value (D E (+ D E)))
(echo "b) Neexistuje jine reseni nez 54, ocekavany vystup je unsat")
(check-sat-assuming (
  (= A 5) (= B 2) (= C 5) (distinct (+ D E) 54)
))

(echo "Test 3 - vstup A=100, B=15, C=1")
(echo "a) Ocekavany vystup je sat a D+E se rovna 253876")
(check-sat-assuming (
  (= A 100) (= B 15) (= C 1)
))
(get-value (D E (+ D E)))
(echo "b) Neexistuje jine reseni nez 253876, ocekavany vystup je unsat")
(check-sat-assuming (
  (= A 100) (= B 15) (= C 1) (distinct (+ D E) 253876)
))

(echo "Test 4 - vstup A=5, B=5, C=3")
(echo "a) Ocekavany vystup je sat a D+E se rovna 51")
(check-sat-assuming (
  (= A 5) (= B 5) (= C 3)
))
(get-value (D E (+ D E)))
(echo "b) Neexistuje jine reseni nez 51, ocekavany vystup je unsat")
(check-sat-assuming (
  (= A 5) (= B 5) (= C 3) (distinct (+ D E) 51)
))

(echo "Test 5 - vstup A=2, B=1, C=2")
(echo "a) Ocekavany vystup je sat a D+E se rovna 7")
(check-sat-assuming (
  (= A 2) (= B 1) (= C 2)
))
(get-value (D E (+ D E)))
(echo "b) Neexistuje jine reseni nez 7, ocekavany vystup je unsat")
(check-sat-assuming (
  (= A 2) (= B 1) (= C 2) (distinct (+ D E) 7)
))
